Traveling Salesman Problem/TSP_generados/Aleatorio1620391387_15.tsp
NAME: Aleatorio1620391387_15.tsp
COMMENT: Randomly generated scenario
TYPE: TSP
DIMENSION: 15
EDGE_WEIGHT_TYPE: ATT
NODE_COORD_SECTION
1 2.26 17.74
2 5.17 26.22
3 48.71 19.39
4 10.18 43.0
5 13.03 22.53
6 37.71 40.45
7 22.87 23.52
8 38.26 12.27
9 22.07 37.8
10 2.92 39.77
11 7.91 12.56
12 40.9 30.26
13 28.13 49.32
14 21.18 2.83
15 47.29 42.15
