Traveling Salesman Problem/TSP_generados/Aleatorio1620391387_15.opt.tour
NAME: Aleatorio1620391387_15.opt.tour
COMMENT: Optimal solution for Aleatorio1620391387_15 (187.99138206438664)
TYPE: TOUR
DIMENSION: 15
TOUR_SECTION
1 11 5 7 14 8 3 12 15 6 13 9 4 10 2
-1
EOF
